p cnf 87 389
c p weight 38 0 0
c p weight -38 1 0
c p weight 39 1 0
c p weight -39 1 0
c p weight 84 -1 0
c p weight -84 1 0
c p weight 87 0.5 0
87 0
-33 0
-31 0
-29 0
-27 0
-25 0
-23 0
-21 0
-19 0
-17 0
-15 0
-13 0
-11 0
-9 0
-7 0
-5 0
-3 0
-1 0
34 -33 31 0
34 -33 32 0
-34 33 31 0
-34 33 32 0
34 33 -31 -32 0
-34 -33 -31 -32 0
35 31 -32 0
35 -31 32 0
-35 31 32 0
-35 -31 -32 0
36 37 -34 0
36 -34 35 0
-36 37 34 0
-36 34 35 0
36 -34 -31 0
-36 34 -31 0
36 -37 34 31 -35 0
-36 -37 -34 31 -35 0
37 -31 35 0
-37 31 35 0
-38 35 0
37 -38 -31 0
-37 -38 31 0
37 38 31 -35 0
-37 38 -31 -35 0
-39 35 0
37 -39 31 0
-37 -39 -31 0
37 39 -31 -35 0
-37 39 31 -35 0
40 -36 37 0
40 -36 35 0
-40 36 37 0
-40 36 35 0
40 36 -37 -35 0
-40 -36 -37 -35 0
41 37 -35 0
41 -37 35 0
-41 37 35 0
-41 -37 -35 0
42 -40 37 0
42 -40 30 0
-42 40 37 0
-42 40 30 0
42 -40 29 -41 0
42 -40 -29 41 0
-42 40 29 -41 0
-42 40 -29 41 0
42 40 -37 29 41 -30 0
42 40 -37 -29 -41 -30 0
-42 -40 -37 29 41 -30 0
-42 -40 -37 -29 -41 -30 0
44 37 -29 0
44 -37 29 0
-44 37 29 0
-44 -37 -29 0
43 41 -30 0
43 -41 30 0
-43 41 30 0
-43 -41 -30 0
45 -42 44 0
45 -42 28 0
-45 42 44 0
-45 42 28 0
45 -42 27 -30 0
45 -42 -27 30 0
-45 42 27 -30 0
-45 42 -27 30 0
45 42 -44 27 30 -28 0
45 42 -44 -27 -30 -28 0
-45 -42 -44 27 30 -28 0
-45 -42 -44 -27 -30 -28 0
47 44 -27 0
47 -44 27 0
-47 44 27 0
-47 -44 -27 0
46 30 -28 0
46 -30 28 0
-46 30 28 0
-46 -30 -28 0
48 -45 47 0
48 -45 26 0
-48 45 47 0
-48 45 26 0
48 -45 25 -28 0
48 -45 -25 28 0
-48 45 25 -28 0
-48 45 -25 28 0
48 45 -47 25 28 -26 0
48 45 -47 -25 -28 -26 0
-48 -45 -47 25 28 -26 0
-48 -45 -47 -25 -28 -26 0
50 47 -25 0
50 -47 25 0
-50 47 25 0
-50 -47 -25 0
49 28 -26 0
49 -28 26 0
-49 28 26 0
-49 -28 -26 0
51 -48 50 0
51 -48 24 0
-51 48 50 0
-51 48 24 0
51 -48 23 -26 0
51 -48 -23 26 0
-51 48 23 -26 0
-51 48 -23 26 0
51 48 -50 23 26 -24 0
51 48 -50 -23 -26 -24 0
-51 -48 -50 23 26 -24 0
-51 -48 -50 -23 -26 -24 0
53 50 -23 0
53 -50 23 0
-53 50 23 0
-53 -50 -23 0
52 26 -24 0
52 -26 24 0
-52 26 24 0
-52 -26 -24 0
54 -51 53 0
54 -51 22 0
-54 51 53 0
-54 51 22 0
54 -51 21 -24 0
54 -51 -21 24 0
-54 51 21 -24 0
-54 51 -21 24 0
54 51 -53 21 24 -22 0
54 51 -53 -21 -24 -22 0
-54 -51 -53 21 24 -22 0
-54 -51 -53 -21 -24 -22 0
56 53 -21 0
56 -53 21 0
-56 53 21 0
-56 -53 -21 0
55 24 -22 0
55 -24 22 0
-55 24 22 0
-55 -24 -22 0
57 -54 56 0
57 -54 20 0
-57 54 56 0
-57 54 20 0
57 -54 19 -22 0
57 -54 -19 22 0
-57 54 19 -22 0
-57 54 -19 22 0
57 54 -56 19 22 -20 0
57 54 -56 -19 -22 -20 0
-57 -54 -56 19 22 -20 0
-57 -54 -56 -19 -22 -20 0
59 56 -19 0
59 -56 19 0
-59 56 19 0
-59 -56 -19 0
58 22 -20 0
58 -22 20 0
-58 22 20 0
-58 -22 -20 0
60 -57 59 0
60 -57 18 0
-60 57 59 0
-60 57 18 0
60 -57 17 -20 0
60 -57 -17 20 0
-60 57 17 -20 0
-60 57 -17 20 0
60 57 -59 17 20 -18 0
60 57 -59 -17 -20 -18 0
-60 -57 -59 17 20 -18 0
-60 -57 -59 -17 -20 -18 0
62 59 -17 0
62 -59 17 0
-62 59 17 0
-62 -59 -17 0
61 20 -18 0
61 -20 18 0
-61 20 18 0
-61 -20 -18 0
63 -60 62 0
63 -60 16 0
-63 60 62 0
-63 60 16 0
63 -60 15 -18 0
63 -60 -15 18 0
-63 60 15 -18 0
-63 60 -15 18 0
63 60 -62 15 18 -16 0
63 60 -62 -15 -18 -16 0
-63 -60 -62 15 18 -16 0
-63 -60 -62 -15 -18 -16 0
65 62 -15 0
65 -62 15 0
-65 62 15 0
-65 -62 -15 0
64 18 -16 0
64 -18 16 0
-64 18 16 0
-64 -18 -16 0
66 -63 65 0
66 -63 14 0
-66 63 65 0
-66 63 14 0
66 -63 13 -16 0
66 -63 -13 16 0
-66 63 13 -16 0
-66 63 -13 16 0
66 63 -65 13 16 -14 0
66 63 -65 -13 -16 -14 0
-66 -63 -65 13 16 -14 0
-66 -63 -65 -13 -16 -14 0
68 65 -13 0
68 -65 13 0
-68 65 13 0
-68 -65 -13 0
67 16 -14 0
67 -16 14 0
-67 16 14 0
-67 -16 -14 0
69 -66 68 0
69 -66 12 0
-69 66 68 0
-69 66 12 0
69 -66 11 -14 0
69 -66 -11 14 0
-69 66 11 -14 0
-69 66 -11 14 0
69 66 -68 11 14 -12 0
69 66 -68 -11 -14 -12 0
-69 -66 -68 11 14 -12 0
-69 -66 -68 -11 -14 -12 0
71 68 -11 0
71 -68 11 0
-71 68 11 0
-71 -68 -11 0
70 14 -12 0
70 -14 12 0
-70 14 12 0
-70 -14 -12 0
72 -69 71 0
72 -69 10 0
-72 69 71 0
-72 69 10 0
72 -69 9 -12 0
72 -69 -9 12 0
-72 69 9 -12 0
-72 69 -9 12 0
72 69 -71 9 12 -10 0
72 69 -71 -9 -12 -10 0
-72 -69 -71 9 12 -10 0
-72 -69 -71 -9 -12 -10 0
74 71 -9 0
74 -71 9 0
-74 71 9 0
-74 -71 -9 0
73 12 -10 0
73 -12 10 0
-73 12 10 0
-73 -12 -10 0
75 -72 74 0
75 -72 8 0
-75 72 74 0
-75 72 8 0
75 -72 7 -10 0
75 -72 -7 10 0
-75 72 7 -10 0
-75 72 -7 10 0
75 72 -74 7 10 -8 0
75 72 -74 -7 -10 -8 0
-75 -72 -74 7 10 -8 0
-75 -72 -74 -7 -10 -8 0
77 74 -7 0
77 -74 7 0
-77 74 7 0
-77 -74 -7 0
76 10 -8 0
76 -10 8 0
-76 10 8 0
-76 -10 -8 0
78 -75 77 0
78 -75 6 0
-78 75 77 0
-78 75 6 0
78 -75 5 -8 0
78 -75 -5 8 0
-78 75 5 -8 0
-78 75 -5 8 0
78 75 -77 5 8 -6 0
78 75 -77 -5 -8 -6 0
-78 -75 -77 5 8 -6 0
-78 -75 -77 -5 -8 -6 0
80 77 -5 0
80 -77 5 0
-80 77 5 0
-80 -77 -5 0
79 8 -6 0
79 -8 6 0
-79 8 6 0
-79 -8 -6 0
81 -78 80 0
81 -78 4 0
-81 78 80 0
-81 78 4 0
81 -78 3 -6 0
81 -78 -3 6 0
-81 78 3 -6 0
-81 78 -3 6 0
81 78 -80 3 6 -4 0
81 78 -80 -3 -6 -4 0
-81 -78 -80 3 6 -4 0
-81 -78 -80 -3 -6 -4 0
83 80 -3 0
83 -80 3 0
-83 80 3 0
-83 -80 -3 0
82 6 -4 0
82 -6 4 0
-82 6 4 0
-82 -6 -4 0
84 -81 83 0
84 -81 2 0
-84 81 83 0
-84 81 2 0
84 -81 1 -4 0
84 -81 -1 4 0
-84 81 1 -4 0
-84 81 -1 4 0
84 81 -83 1 4 -2 0
84 81 -83 -1 -4 -2 0
-84 -81 -83 1 4 -2 0
-84 -81 -83 -1 -4 -2 0
86 83 -1 0
86 -83 1 0
-86 83 1 0
-86 -83 -1 0
85 4 -2 0
85 -4 2 0
-85 4 2 0
-85 -4 -2 0
-86 0
-83 0
-85 0
-80 0
-82 0
-77 0
-79 0
-74 0
-76 0
-71 0
-73 0
-68 0
-70 0
-65 0
-67 0
-62 0
-64 0
-59 0
-61 0
-56 0
-58 0
-53 0
-55 0
-50 0
-52 0
-47 0
-49 0
-44 0
-46 0
-37 0
-43 0
